<instance format="XCSP3" type="COP">
<variables>
<var id="xe_0"> 14 28 42 70 84 98 126 140 154 168 182 196 224 238 252 266 280 294 308 322 336 350 364 392 406 434 448 462 476 490 504 518 532 546 560 574 588 602 616 630 644 658 672 700 714 728 </var>
<var id="xr_0"> 14 28 42 56 70 84 98 126 140 154 168 182 196 210 224 238 252 266 308 322 336 350 364 378 392 406 420 462 476 490 504 518 532 546 560 574 588 602 616 630 644 672 686 700 714 728 </var>
<var id="xe_1"> 14 28 42 56 70 84 98 140 154 168 182 196 224 238 252 266 294 308 322 336 350 364 378 392 406 420 434 448 462 476 490 504 518 532 546 560 574 588 602 616 630 644 658 672 686 700 714 728 </var>
<var id="xr_1"> 14 28 42 84 98 112 126 140 168 196 210 238 252 266 280 308 322 336 378 392 406 420 434 448 462 476 490 504 518 546 560 588 602 616 630 644 658 672 686 700 714 728 </var>
<var id="xe_2"> 14 28 42 84 98 112 126 140 154 168 182 196 210 224 252 280 294 308 322 336 378 392 406 420 434 448 462 490 504 518 532 546 560 588 616 630 644 658 672 686 700 714 728 </var>
<var id="xr_2"> 28 56 70 98 112 126 154 182 196 210 224 238 252 266 280 294 308 322 336 350 364 378 392 406 420 434 448 490 504 518 532 546 560 574 602 616 644 686 714 728 </var>
<var id="xe_3"> 14 28 42 56 70 84 98 112 126 140 154 168 182 196 210 224 238 252 266 280 294 308 322 336 350 364 378 392 406 420 448 462 476 490 504 518 532 546 560 574 588 602 616 630 658 672 686 700 714 728 </var>
<var id="xr_3"> 14 28 42 56 70 84 98 112 126 140 154 168 196 210 224 238 252 266 280 294 308 336 350 420 434 448 462 476 490 504 518 532 546 560 588 630 644 658 672 686 700 714 728 </var>
<var id="xe_4"> 14 28 42 56 70 84 98 112 126 140 154 168 182 196 210 224 238 252 266 280 294 308 322 336 350 364 378 392 406 420 434 448 462 476 490 504 518 532 546 560 574 588 602 616 630 644 658 672 686 700 714 728 </var>
<var id="xr_4"> 14 28 42 56 70 84 98 112 126 140 168 182 196 210 224 238 252 266 280 294 308 322 336 364 378 392 406 420 434 448 462 476 490 504 518 532 546 560 574 588 602 616 630 644 658 672 686 700 714 728 </var>
<var id="xe_5"> 42 56 70 84 98 112 126 140 154 168 182 196 210 224 238 252 266 280 294 308 322 336 350 364 378 392 406 420 434 448 462 476 490 504 532 546 560 574 588 602 616 630 644 658 672 686 700 714 728 </var>
<var id="xr_5"> 14 42 56 70 84 98 112 126 140 154 168 182 196 210 224 238 252 266 280 294 308 322 364 378 392 406 420 434 448 462 476 490 504 518 532 546 560 574 588 602 616 630 644 658 672 686 700 714 728 </var>
<var id="xe_6"> 14 28 42 56 70 84 98 112 126 140 154 168 182 196 210 224 238 252 266 280 294 308 322 336 350 364 392 406 420 434 448 462 476 490 504 518 532 546 560 574 588 602 616 630 644 658 672 686 700 714 728 </var>
<var id="xr_6"> 14 28 42 56 84 98 112 126 140 154 168 196 210 238 252 266 280 294 308 322 336 350 364 378 392 420 462 518 532 560 574 588 602 616 630 644 658 672 700 714 728 </var>
<var id="xe_7"> 14 28 42 70 84 98 112 126 154 168 182 196 210 224 238 252 266 280 294 308 322 350 378 392 420 434 448 462 476 490 504 518 532 546 574 602 616 644 658 686 714 728 </var>
<var id="xr_7"> 14 28 42 56 70 84 98 112 126 140 154 168 182 196 224 252 266 280 294 322 336 350 378 406 434 448 462 476 490 504 518 546 560 574 602 616 630 672 686 700 728 </var>
<var id="xe_8"> 14 28 42 70 84 98 112 126 154 168 182 196 210 224 238 252 266 280 294 308 322 350 364 378 392 406 420 434 448 462 476 504 518 532 546 560 574 602 616 630 644 658 672 700 714 728 </var>
<var id="xr_8"> 14 28 42 56 70 84 98 126 140 154 168 182 196 210 224 266 280 294 308 322 336 350 364 392 406 434 448 476 490 504 518 532 546 560 574 588 602 616 630 644 658 686 700 728 </var>
<var id="xe_9"> 14 28 56 84 98 112 126 140 154 168 182 196 210 224 266 280 294 308 322 336 350 364 378 392 406 462 476 490 504 518 560 574 602 630 658 672 686 700 714 728 </var>
<var id="xr_9"> 14 28 42 56 70 84 112 126 140 154 168 182 196 224 238 252 266 280 294 336 350 364 392 420 434 448 462 490 504 518 532 546 560 574 588 602 616 630 644 672 686 700 714 728 </var>
<var id="xe_10"> 14 28 42 56 70 84 98 112 126 140 154 168 182 196 210 224 238 252 266 280 294 308 322 336 350 364 378 392 406 420 434 448 462 476 490 504 532 546 560 574 588 602 616 630 644 658 672 686 700 714 728 </var>
<var id="xr_10"> 14 28 56 70 84 98 112 126 140 154 168 182 196 210 224 238 252 266 280 294 322 336 350 364 378 392 406 420 434 448 462 476 490 504 518 532 546 560 574 588 602 616 630 644 658 672 686 700 714 728 </var>
<var id="xe_11"> 14 42 56 70 84 112 126 140 154 168 182 196 224 238 280 294 308 322 336 364 392 406 420 434 448 462 504 518 546 560 574 588 602 616 630 644 658 672 686 700 714 728 </var>
<var id="xr_11"> 28 56 84 98 112 126 140 154 182 210 224 238 252 266 280 294 308 322 336 350 364 378 392 420 434 448 462 476 490 504 532 546 560 588 602 616 630 644 658 672 686 700 714 728 </var>
<var id="xe_12"> 14 28 42 56 70 84 98 112 126 140 154 168 182 196 210 224 238 252 266 280 294 308 336 350 364 378 392 406 420 434 448 462 476 490 504 518 532 546 560 574 588 602 616 630 644 658 672 686 700 714 728 </var>
<var id="xr_12"> 14 28 42 56 70 98 112 126 140 154 168 182 210 224 238 252 266 280 294 308 322 336 350 364 378 392 406 420 434 448 462 476 490 504 518 532 546 560 588 602 616 644 658 672 686 700 714 728 </var>
<var id="xe_13"> 14 28 42 56 70 84 112 168 196 210 224 238 252 266 280 294 308 322 336 350 364 378 392 420 448 462 476 490 504 518 532 546 574 588 602 616 630 644 686 700 714 728 </var>
<var id="xr_13"> 14 28 42 56 70 84 98 112 126 140 154 168 182 196 210 224 238 252 266 280 294 308 322 336 350 364 378 392 406 420 434 448 462 476 490 518 532 560 574 588 602 616 630 644 658 672 686 700 714 728 </var>
<var id="xe_14"> 14 28 42 56 70 84 98 112 126 140 154 168 182 196 210 224 238 252 266 280 294 308 322 336 364 378 392 406 420 434 448 462 490 504 518 532 546 560 574 588 602 616 630 644 658 700 714 728 </var>
<var id="xr_14"> 14 28 42 70 84 98 112 126 140 154 168 182 196 210 224 238 252 266 280 294 322 336 364 378 392 406 420 434 448 476 490 504 518 532 546 560 574 588 602 616 630 644 658 672 714 728 </var>
<var id="xe_15"> 14 28 42 56 70 84 98 126 140 154 182 224 238 252 266 280 294 308 322 336 364 378 406 420 434 448 462 476 490 504 518 532 560 574 602 616 630 644 672 686 714 728 </var>
<var id="xr_15"> 14 28 56 70 84 98 112 126 140 154 168 182 196 210 224 238 252 266 280 294 308 322 336 350 364 378 392 406 448 462 476 490 504 518 532 546 560 574 588 602 616 630 644 658 672 686 700 714 728 </var>
<var id="xe_16"> 14 28 42 70 84 98 126 140 154 168 182 196 210 224 238 252 280 294 322 336 350 364 378 392 420 448 462 476 490 504 518 532 546 574 602 616 630 644 658 700 714 728 </var>
<var id="xr_16"> 14 28 42 56 70 84 98 112 126 140 154 182 196 210 224 238 252 266 280 308 322 336 350 364 378 392 406 420 434 462 476 504 518 532 546 560 574 588 602 630 644 658 672 686 700 714 728 </var>
<var id="xe_17"> 14 28 42 56 70 98 112 140 154 168 182 196 210 224 238 252 266 280 294 308 322 336 350 364 378 392 406 420 434 462 476 490 504 518 532 546 560 574 588 602 616 630 644 658 672 686 700 714 728 </var>
<var id="xr_17"> 14 28 56 84 112 126 140 154 168 196 210 224 238 252 266 280 294 308 322 336 350 364 392 406 420 434 462 476 490 504 518 532 546 574 588 602 616 630 644 658 672 686 700 714 728 </var>
<var id="xe_18"> 14 42 56 70 84 98 112 126 140 154 168 182 196 210 252 266 280 294 308 322 336 350 378 392 406 434 448 462 490 504 518 532 546 560 574 588 602 630 644 658 672 686 714 728 </var>
<var id="xr_18"> 14 28 42 56 70 84 98 112 126 140 154 168 182 196 210 224 238 252 266 280 294 308 322 336 350 364 378 392 420 448 462 476 490 504 518 532 546 560 574 588 602 630 644 658 672 686 700 714 728 </var>
<var id="xe_19"> 14 28 42 56 70 84 98 112 126 154 168 182 196 210 224 252 266 280 294 308 336 350 364 378 392 406 420 434 448 462 476 490 504 518 532 560 574 588 602 616 630 644 658 672 686 700 714 </var>
<var id="xr_19"> 14 28 42 56 98 112 126 140 154 182 196 210 224 238 252 280 294 308 322 336 350 364 378 392 406 420 448 462 490 504 518 532 560 574 588 602 616 630 644 658 672 686 700 </var>
<var id="xe_20"> 14 28 42 56 70 84 98 112 126 140 154 168 182 196 210 224 238 252 266 280 294 308 322 336 350 364 378 392 406 420 434 448 462 476 490 504 518 532 546 560 588 602 616 630 644 658 672 686 700 714 728 </var>
<var id="xr_20"> 14 28 42 56 70 84 98 112 126 140 154 168 182 196 210 224 238 252 266 294 308 322 336 350 364 378 392 406 420 434 448 462 476 490 504 518 532 546 560 574 588 602 616 630 644 658 672 700 714 728 </var>
<var id="xe_21"> 14 28 56 84 98 112 126 154 168 182 196 224 252 266 294 322 336 350 364 378 392 406 420 434 462 476 504 518 532 546 574 588 602 616 630 644 658 672 686 714 </var>
<var id="xr_21"> 28 42 84 126 140 154 168 182 196 238 252 266 280 294 308 322 350 378 392 406 420 434 448 462 476 490 504 518 532 546 574 588 602 616 630 644 658 672 700 714 728 </var>
<var id="xe_22"> 14 28 42 56 70 84 98 112 126 140 154 168 182 196 210 238 252 266 280 294 308 322 336 350 378 392 406 420 434 462 476 490 504 518 532 560 574 588 602 616 630 644 672 686 700 714 728 </var>
<var id="xr_22"> 14 28 42 56 70 84 98 112 126 140 154 168 182 196 210 224 238 252 266 280 294 308 322 336 350 364 378 392 406 420 434 448 462 476 490 504 518 532 546 560 574 588 602 616 630 644 658 686 700 714 728 </var>
<var id="xe_23"> 14 28 42 56 70 84 98 112 126 140 154 168 182 196 210 224 238 252 266 280 294 308 322 336 364 378 392 406 420 434 462 476 490 504 518 532 546 560 574 588 602 644 658 672 686 700 728 </var>
<var id="xr_23"> 14 98 112 126 140 154 168 182 196 210 224 238 252 266 280 294 308 322 336 350 364 378 392 406 420 434 462 476 490 504 518 532 546 574 602 616 630 644 658 672 728 </var>
<var as="xe_4" id="xe_24"/>
<var id="xr_24"> 14 28 42 56 70 84 98 112 126 140 168 182 196 210 224 238 252 266 280 294 308 322 336 350 364 378 392 406 420 434 448 462 476 490 504 518 532 546 560 574 588 602 616 630 644 658 672 686 700 714 728 </var>
<var id="xe_25"> 14 28 42 56 70 84 98 126 140 168 182 196 210 224 238 252 280 294 322 336 378 392 420 434 462 476 490 504 518 546 560 574 588 616 630 658 672 686 714 728 </var>
<var id="xr_25"> 14 42 56 70 98 140 154 168 196 210 224 238 252 266 280 322 336 350 364 378 392 406 420 434 448 462 476 490 518 532 546 560 588 602 616 630 658 672 700 714 728 </var>
<var id="xe_26"> 14 28 42 56 70 84 98 112 126 140 154 168 182 196 210 224 238 252 266 280 294 308 322 336 350 364 378 406 420 434 448 462 476 490 504 532 546 560 574 588 602 616 630 644 658 672 686 700 714 728 </var>
<var id="xr_26"> 14 28 42 70 98 112 126 140 154 168 182 196 224 238 252 266 280 294 308 322 336 350 364 378 392 406 420 434 448 462 476 490 504 518 532 546 560 574 588 602 616 630 644 672 686 700 714 728 </var>
<var id="xe_27"> 14 28 42 56 70 84 98 112 154 168 182 196 210 224 238 252 266 280 322 336 350 364 392 406 420 434 448 462 490 504 518 532 546 560 588 616 630 658 686 700 714 728 </var>
<var id="xr_27"> 14 28 42 56 70 84 98 112 126 140 154 168 182 196 210 224 238 252 266 280 294 308 322 336 350 364 378 392 406 420 434 448 462 476 490 504 518 532 546 560 574 588 602 616 644 658 672 686 700 714 728 </var>
<var as="xr_22" id="xe_28"/>
<var id="xr_28"> 14 28 42 56 70 84 98 112 126 140 154 168 182 196 210 224 238 280 308 322 350 378 392 406 420 434 448 462 476 490 504 518 532 574 588 616 630 658 672 700 714 728 </var>
<var id="xe_29"> 14 28 42 56 70 84 98 112 126 140 154 168 182 196 210 224 238 252 266 280 294 308 322 336 350 364 378 392 406 420 448 476 490 504 518 532 546 560 574 588 602 616 630 644 658 672 686 700 714 728 </var>
<var id="xr_29"> 14 28 56 70 84 98 112 126 154 168 182 196 210 224 238 252 280 294 308 322 336 350 364 378 392 406 420 434 448 462 476 490 504 518 532 546 574 588 602 616 630 644 658 672 686 700 714 728 </var>
<var id="xe_30"> 28 42 56 70 84 98 112 126 140 154 168 182 196 238 252 266 280 294 308 336 364 392 406 420 462 476 490 504 518 532 546 574 588 616 630 658 672 686 714 728 </var>
<var id="xr_30"> 14 28 42 70 84 98 126 140 154 168 182 210 224 238 252 266 280 294 308 322 336 350 364 378 392 406 420 434 448 462 476 504 518 532 546 560 574 588 602 616 630 644 658 672 686 700 714 728 </var>
<var id="xe_31"> 28 56 70 84 112 126 140 168 182 196 210 224 238 266 280 294 308 322 336 350 364 378 392 406 420 434 448 462 476 490 504 518 532 560 574 588 602 616 630 644 658 672 686 700 714 728 </var>
<var id="xr_31"> 14 28 42 56 70 84 98 112 140 154 168 182 196 210 224 238 252 266 280 294 308 322 336 350 364 378 392 406 420 434 448 462 476 490 504 532 546 560 574 588 602 616 630 644 658 672 686 700 714 728 </var>
<var id="xe_32"> 14 28 42 56 84 98 112 126 154 168 182 196 210 224 238 280 308 322 336 350 364 378 392 406 420 434 448 476 490 518 532 546 560 588 602 616 644 672 686 700 714 728 </var>
<var id="xr_32"> 14 28 56 70 98 112 126 140 168 182 210 224 238 280 294 308 322 336 350 364 378 406 420 434 462 476 490 504 518 546 560 574 588 602 616 630 658 672 686 700 714 728 </var>
<var id="xe_33"> 14 28 70 84 98 112 126 140 154 168 182 196 210 224 238 252 280 294 308 322 336 350 364 378 392 406 420 434 462 476 490 504 518 532 560 574 616 630 644 658 686 700 714 728 </var>
<var id="xr_33"> 14 28 42 56 70 84 98 112 126 140 182 196 224 238 252 266 280 294 308 322 336 350 364 406 420 448 462 476 490 504 518 532 546 574 588 616 658 672 686 714 728 </var>
<var id="xe_34"> 14 28 42 56 70 84 98 112 126 140 154 168 182 196 224 238 252 266 280 294 308 322 336 350 364 378 392 406 420 434 448 462 476 490 504 518 532 546 574 588 602 616 630 644 658 672 686 700 714 728 </var>
<var as="xe_4" id="xr_34"/>
<var id="xe_35"> 42 56 70 84 112 126 140 154 168 182 196 210 224 238 252 266 280 294 308 322 336 350 364 378 392 406 420 434 448 462 476 504 532 546 560 574 588 602 616 630 644 658 672 686 700 714 728 </var>
<var id="xr_35"> 14 28 42 56 70 84 98 112 126 154 168 196 224 238 252 266 280 294 308 322 336 350 392 406 420 434 448 462 476 490 504 518 532 546 574 588 602 616 630 644 658 672 700 714 728 </var>
<var id="xe_36"> 14 28 42 56 70 98 112 154 168 182 196 224 238 252 266 280 294 308 336 350 364 378 392 406 420 434 448 462 476 504 518 532 560 588 616 630 644 658 672 686 728 </var>
<var id="xr_36"> 14 28 42 56 70 84 98 112 126 140 154 168 182 196 210 224 238 252 266 280 294 308 322 336 350 364 378 392 406 420 462 476 490 504 518 532 546 560 574 588 602 616 630 644 658 672 686 700 714 728 </var>
<var id="xe_37"> 14 28 42 56 70 98 112 126 140 154 168 182 196 210 224 238 252 266 280 294 308 322 336 350 364 378 392 406 420 434 448 462 490 504 518 532 546 574 588 602 616 630 644 658 672 686 700 714 728 </var>
<var as="xe_4" id="xr_37"/>
<var id="xe_38"> 14 28 42 56 70 84 98 112 126 140 154 168 196 210 224 238 252 266 280 294 308 322 336 350 364 378 392 406 420 434 448 462 476 490 504 518 546 560 574 602 616 630 644 672 686 714 728 </var>
<var id="xr_38"> 14 28 42 56 70 84 98 112 140 154 168 196 210 224 238 252 266 294 308 322 336 350 364 378 392 406 420 434 448 462 476 490 504 532 546 574 588 602 616 630 644 658 672 686 700 714 728 </var>
<var id="xe_39"> 14 56 70 84 98 112 126 140 154 168 196 210 224 238 252 266 280 294 308 322 336 350 364 378 392 406 420 434 448 462 476 490 504 518 532 546 560 574 588 602 616 630 644 658 672 686 700 714 728 </var>
<var id="xr_39"> 28 42 56 70 84 98 112 126 140 154 168 182 196 210 224 238 252 266 280 294 308 322 350 364 392 406 420 434 448 462 476 490 504 518 532 546 560 574 588 602 616 630 644 658 672 686 700 714 728 </var>
<var id="xe_40"> 14 28 42 56 70 84 98 112 126 140 168 182 196 210 224 238 252 266 280 308 322 336 350 364 378 392 406 434 448 462 476 490 504 518 546 560 574 588 602 630 644 658 672 686 714 728 </var>
<var id="xr_40"> 28 42 56 70 84 98 126 154 168 182 196 224 238 252 266 294 308 322 336 350 364 378 392 406 420 434 448 462 476 504 518 532 546 560 574 588 616 630 644 658 672 686 714 728 </var>
<var id="xe_41"> 14 28 42 70 84 98 112 126 140 154 168 196 210 224 238 252 266 280 294 322 336 350 364 378 392 406 420 434 448 462 476 490 504 518 532 546 574 588 602 630 644 658 672 700 714 728 </var>
<var id="xr_41"> 14 28 42 56 70 84 112 126 140 154 168 182 196 238 252 266 280 294 308 322 336 350 364 378 392 406 420 434 448 462 476 490 504 518 532 560 574 588 602 616 630 644 686 714 728 </var>
<var id="xe_42"> 14 28 42 56 70 84 98 112 126 140 154 168 182 210 224 238 266 280 294 322 336 350 364 378 406 420 434 448 462 476 490 504 518 532 546 560 574 588 602 616 630 644 658 672 686 700 714 728 </var>
<var id="xr_42"> 14 42 56 70 84 98 112 126 140 154 168 210 224 238 266 280 294 308 322 350 364 378 392 406 420 434 448 462 476 490 504 518 532 546 560 574 588 602 616 630 658 672 700 714 728 </var>
<var id="xe_43"> 14 42 70 98 126 140 154 168 182 196 224 238 252 266 280 294 308 322 336 350 364 378 392 406 434 448 462 490 504 518 532 546 560 574 602 616 630 644 658 672 714 </var>
<var id="xr_43"> 14 28 42 70 84 98 112 126 140 154 168 182 196 210 224 238 252 266 294 322 336 364 392 406 420 434 462 476 490 504 532 546 560 574 588 602 616 644 658 672 686 700 714 728 </var>
<var id="xe_44"> 14 28 56 84 98 112 126 154 168 182 210 224 238 266 280 294 308 322 336 364 378 392 420 434 448 462 476 490 504 518 532 560 574 588 602 616 630 644 658 672 686 700 714 728 </var>
<var id="xr_44"> 14 28 42 56 70 84 98 140 168 182 196 210 238 252 280 294 308 336 350 378 392 406 420 434 462 476 504 518 532 546 560 574 588 602 616 630 644 658 672 686 700 714 </var>
<var as="xe_4" id="xe_45"/>
<var id="xr_45"> 14 28 42 56 70 84 98 112 126 140 154 168 182 196 224 238 252 266 280 294 308 322 336 350 378 392 406 420 434 448 462 476 490 504 518 532 546 560 574 602 616 630 644 658 672 686 700 714 728 </var>
<var as="xe_20" id="xe_46"/>
<var id="xr_46"> 14 28 42 56 70 84 98 112 126 140 154 168 182 196 224 238 252 266 280 294 308 322 336 350 364 378 392 406 420 434 448 462 476 490 504 518 532 546 560 574 588 602 616 630 644 658 672 686 700 714 728 </var>
<var id="xe_47"> 14 28 56 70 84 98 112 126 168 182 196 210 238 252 266 280 294 308 322 336 364 378 392 406 420 434 448 462 476 490 504 518 546 560 574 588 602 616 630 644 658 672 686 700 714 728 </var>
<var id="xr_47"> 14 28 42 70 84 98 112 126 140 168 182 196 224 238 252 266 280 294 308 322 336 350 364 378 392 406 420 434 448 462 490 504 518 532 560 574 588 602 630 644 658 672 686 700 714 728 </var>
<var as="xe_4" id="xe_48"/>
<var id="xr_48"> 14 28 42 56 70 126 140 154 168 182 196 224 238 252 266 280 294 350 364 378 392 406 420 434 448 462 476 504 546 560 574 588 602 616 630 644 658 686 700 728 </var>
<var id="xe_49"> 14 42 84 126 140 154 168 182 196 210 224 238 252 266 280 294 322 336 350 364 378 392 406 420 434 448 462 476 490 504 518 560 574 588 602 630 644 658 672 686 700 714 </var>
<var id="xr_49"> 14 28 42 56 70 84 98 112 126 140 154 168 182 196 210 224 238 252 266 280 308 322 336 364 378 392 406 420 434 448 476 490 504 518 546 574 588 602 616 630 644 658 672 686 700 714 728 </var>
<var id="nFrequencies"> 0..99 </var>
</variables>
<constraints>
<group note="A station must have delta between emitting and receiving frequencies">
<intension> lt(%0,dist(%1,%2)) </intension>
<args> 154 xe_0 xr_0 </args>
<args> 154 xe_1 xr_1 </args>
<args> 154 xe_2 xr_2 </args>
<args> 154 xe_3 xr_3 </args>
<args> 154 xe_4 xr_4 </args>
<args> 154 xe_5 xr_5 </args>
<args> 154 xe_6 xr_6 </args>
<args> 154 xe_7 xr_7 </args>
<args> 154 xe_8 xr_8 </args>
<args> 154 xe_9 xr_9 </args>
<args> 154 xe_10 xr_10 </args>
<args> 154 xe_11 xr_11 </args>
<args> 154 xe_12 xr_12 </args>
<args> 154 xe_13 xr_13 </args>
<args> 154 xe_14 xr_14 </args>
<args> 154 xe_15 xr_15 </args>
<args> 154 xe_16 xr_16 </args>
<args> 154 xe_17 xr_17 </args>
<args> 154 xe_18 xr_18 </args>
<args> 154 xe_19 xr_19 </args>
<args> 154 xe_20 xr_20 </args>
<args> 154 xe_21 xr_21 </args>
<args> 154 xe_22 xr_22 </args>
<args> 154 xe_23 xr_23 </args>
<args> 154 xe_24 xr_24 </args>
<args> 154 xe_25 xr_25 </args>
<args> 154 xe_26 xr_26 </args>
<args> 154 xe_27 xr_27 </args>
<args> 154 xe_28 xr_28 </args>
<args> 154 xe_29 xr_29 </args>
<args> 154 xe_30 xr_30 </args>
<args> 154 xe_31 xr_31 </args>
<args> 154 xe_32 xr_32 </args>
<args> 154 xe_33 xr_33 </args>
<args> 154 xe_34 xr_34 </args>
<args> 154 xe_35 xr_35 </args>
<args> 154 xe_36 xr_36 </args>
<args> 154 xe_37 xr_37 </args>
<args> 154 xe_38 xr_38 </args>
<args> 154 xe_39 xr_39 </args>
<args> 154 xe_40 xr_40 </args>
<args> 154 xe_41 xr_41 </args>
<args> 154 xe_42 xr_42 </args>
<args> 154 xe_43 xr_43 </args>
<args> 154 xe_44 xr_44 </args>
<args> 154 xe_45 xr_45 </args>
<args> 154 xe_46 xr_46 </args>
<args> 154 xe_47 xr_47 </args>
<args> 154 xe_48 xr_48 </args>
<args> 154 xe_49 xr_49 </args>
</group>
<group note="If interferences between two stations then must frequencies must be Delta apart...(emitting, emitting)">
<intension> lt(%0,dist(%1,%2)) </intension>
<args> 50 xe_0 xe_21 </args>
<args> 30 xe_0 xe_37 </args>
<args> 40 xe_0 xe_18 </args>
<args> 30 xe_0 xe_3 </args>
<args> 20 xe_0 xe_42 </args>
<args> 20 xe_1 xe_31 </args>
<args> 40 xe_3 xe_25 </args>
<args> 40 xe_4 xe_48 </args>
<args> 20 xe_6 xe_10 </args>
<args> 40 xe_6 xe_21 </args>
<args> 20 xe_7 xe_36 </args>
<args> 50 xe_7 xe_9 </args>
<args> 40 xe_8 xe_37 </args>
<args> 20 xe_9 xe_21 </args>
<args> 30 xe_9 xe_18 </args>
<args> 40 xe_9 xe_30 </args>
<args> 20 xe_10 xe_39 </args>
<args> 40 xe_10 xe_29 </args>
<args> 50 xe_10 xe_40 </args>
<args> 20 xe_11 xe_41 </args>
<args> 30 xe_11 xe_44 </args>
<args> 40 xe_12 xe_42 </args>
<args> 30 xe_13 xe_27 </args>
<args> 50 xe_13 xe_42 </args>
<args> 20 xe_14 xe_35 </args>
<args> 50 xe_14 xe_36 </args>
<args> 20 xe_14 xe_21 </args>
<args> 50 xe_14 xe_40 </args>
<args> 50 xe_15 xe_21 </args>
<args> 50 xe_16 xe_17 </args>
<args> 20 xe_18 xe_21 </args>
<args> 20 xe_18 xe_47 </args>
<args> 20 xe_19 xe_40 </args>
<args> 50 xe_21 xe_32 </args>
<args> 50 xe_21 xe_23 </args>
<args> 50 xe_22 xe_30 </args>
<args> 30 xe_25 xe_33 </args>
<args> 30 xe_25 xe_47 </args>
<args> 30 xe_26 xe_28 </args>
<args> 50 xe_26 xe_41 </args>
<args> 20 xe_27 xe_38 </args>
<args> 30 xe_28 xe_33 </args>
<args> 50 xe_29 xe_39 </args>
<args> 40 xe_30 xe_49 </args>
<args> 50 xe_31 xe_36 </args>
<args> 40 xe_33 xe_34 </args>
<args> 20 xe_34 xe_46 </args>
<args> 20 xe_35 xe_40 </args>
<args> 40 xe_36 xe_45 </args>
<args> 40 xe_36 xe_49 </args>
<args> 40 xe_37 xe_45 </args>
<args> 30 xe_38 xe_43 </args>
<args> 30 xe_40 xe_48 </args>
<args> 50 xe_41 xe_46 </args>
<args> 30 xe_42 xe_44 </args>
</group>
<group note="If interferences between two stations then must frequencies must be Delta apart...(emitting, receiving)">
<intension> lt(%0,dist(%1,%2)) </intension>
<args> 50 xe_0 xr_21 </args>
<args> 30 xe_0 xr_37 </args>
<args> 40 xe_0 xr_18 </args>
<args> 30 xe_0 xr_3 </args>
<args> 20 xe_0 xr_42 </args>
<args> 20 xe_1 xr_31 </args>
<args> 40 xe_3 xr_25 </args>
<args> 40 xe_4 xr_48 </args>
<args> 20 xe_6 xr_10 </args>
<args> 40 xe_6 xr_21 </args>
<args> 20 xe_7 xr_36 </args>
<args> 50 xe_7 xr_9 </args>
<args> 40 xe_8 xr_37 </args>
<args> 20 xe_9 xr_21 </args>
<args> 30 xe_9 xr_18 </args>
<args> 40 xe_9 xr_30 </args>
<args> 20 xe_10 xr_39 </args>
<args> 40 xe_10 xr_29 </args>
<args> 50 xe_10 xr_40 </args>
<args> 20 xe_11 xr_41 </args>
<args> 30 xe_11 xr_44 </args>
<args> 40 xe_12 xr_42 </args>
<args> 30 xe_13 xr_27 </args>
<args> 50 xe_13 xr_42 </args>
<args> 20 xe_14 xr_35 </args>
<args> 50 xe_14 xr_36 </args>
<args> 20 xe_14 xr_21 </args>
<args> 50 xe_14 xr_40 </args>
<args> 50 xe_15 xr_21 </args>
<args> 50 xe_16 xr_17 </args>
<args> 20 xe_18 xr_21 </args>
<args> 20 xe_18 xr_47 </args>
<args> 20 xe_19 xr_40 </args>
<args> 50 xe_21 xr_32 </args>
<args> 50 xe_21 xr_23 </args>
<args> 50 xe_22 xr_30 </args>
<args> 30 xe_25 xr_33 </args>
<args> 30 xe_25 xr_47 </args>
<args> 30 xe_26 xr_28 </args>
<args> 50 xe_26 xr_41 </args>
<args> 20 xe_27 xr_38 </args>
<args> 30 xe_28 xr_33 </args>
<args> 50 xe_29 xr_39 </args>
<args> 40 xe_30 xr_49 </args>
<args> 50 xe_31 xr_36 </args>
<args> 40 xe_33 xr_34 </args>
<args> 20 xe_34 xr_46 </args>
<args> 20 xe_35 xr_40 </args>
<args> 40 xe_36 xr_45 </args>
<args> 40 xe_36 xr_49 </args>
<args> 40 xe_37 xr_45 </args>
<args> 30 xe_38 xr_43 </args>
<args> 30 xe_40 xr_48 </args>
<args> 50 xe_41 xr_46 </args>
<args> 30 xe_42 xr_44 </args>
</group>
<group note="If interferences between two stations then must frequencies must be Delta apart...(receiving, emitting)">
<intension> lt(%0,dist(%1,%2)) </intension>
<args> 50 xr_0 xe_21 </args>
<args> 30 xr_0 xe_37 </args>
<args> 40 xr_0 xe_18 </args>
<args> 30 xr_0 xe_3 </args>
<args> 20 xr_0 xe_42 </args>
<args> 20 xr_1 xe_31 </args>
<args> 40 xr_3 xe_25 </args>
<args> 40 xr_4 xe_48 </args>
<args> 20 xr_6 xe_10 </args>
<args> 40 xr_6 xe_21 </args>
<args> 20 xr_7 xe_36 </args>
<args> 50 xr_7 xe_9 </args>
<args> 40 xr_8 xe_37 </args>
<args> 20 xr_9 xe_21 </args>
<args> 30 xr_9 xe_18 </args>
<args> 40 xr_9 xe_30 </args>
<args> 20 xr_10 xe_39 </args>
<args> 40 xr_10 xe_29 </args>
<args> 50 xr_10 xe_40 </args>
<args> 20 xr_11 xe_41 </args>
<args> 30 xr_11 xe_44 </args>
<args> 40 xr_12 xe_42 </args>
<args> 30 xr_13 xe_27 </args>
<args> 50 xr_13 xe_42 </args>
<args> 20 xr_14 xe_35 </args>
<args> 50 xr_14 xe_36 </args>
<args> 20 xr_14 xe_21 </args>
<args> 50 xr_14 xe_40 </args>
<args> 50 xr_15 xe_21 </args>
<args> 50 xr_16 xe_17 </args>
<args> 20 xr_18 xe_21 </args>
<args> 20 xr_18 xe_47 </args>
<args> 20 xr_19 xe_40 </args>
<args> 50 xr_21 xe_32 </args>
<args> 50 xr_21 xe_23 </args>
<args> 50 xr_22 xe_30 </args>
<args> 30 xr_25 xe_33 </args>
<args> 30 xr_25 xe_47 </args>
<args> 30 xr_26 xe_28 </args>
<args> 50 xr_26 xe_41 </args>
<args> 20 xr_27 xe_38 </args>
<args> 30 xr_28 xe_33 </args>
<args> 50 xr_29 xe_39 </args>
<args> 40 xr_30 xe_49 </args>
<args> 50 xr_31 xe_36 </args>
<args> 40 xr_33 xe_34 </args>
<args> 20 xr_34 xe_46 </args>
<args> 20 xr_35 xe_40 </args>
<args> 40 xr_36 xe_45 </args>
<args> 40 xr_36 xe_49 </args>
<args> 40 xr_37 xe_45 </args>
<args> 30 xr_38 xe_43 </args>
<args> 30 xr_40 xe_48 </args>
<args> 50 xr_41 xe_46 </args>
<args> 30 xr_42 xe_44 </args>
</group>
<group note="If interferences between two stations then must frequencies must be Delta apart...(receiving, receiving)">
<intension> lt(%0,dist(%1,%2)) </intension>
<args> 50 xr_0 xr_21 </args>
<args> 30 xr_0 xr_37 </args>
<args> 40 xr_0 xr_18 </args>
<args> 30 xr_0 xr_3 </args>
<args> 20 xr_0 xr_42 </args>
<args> 20 xr_1 xr_31 </args>
<args> 40 xr_3 xr_25 </args>
<args> 40 xr_4 xr_48 </args>
<args> 20 xr_6 xr_10 </args>
<args> 40 xr_6 xr_21 </args>
<args> 20 xr_7 xr_36 </args>
<args> 50 xr_7 xr_9 </args>
<args> 40 xr_8 xr_37 </args>
<args> 20 xr_9 xr_21 </args>
<args> 30 xr_9 xr_18 </args>
<args> 40 xr_9 xr_30 </args>
<args> 20 xr_10 xr_39 </args>
<args> 40 xr_10 xr_29 </args>
<args> 50 xr_10 xr_40 </args>
<args> 20 xr_11 xr_41 </args>
<args> 30 xr_11 xr_44 </args>
<args> 40 xr_12 xr_42 </args>
<args> 30 xr_13 xr_27 </args>
<args> 50 xr_13 xr_42 </args>
<args> 20 xr_14 xr_35 </args>
<args> 50 xr_14 xr_36 </args>
<args> 20 xr_14 xr_21 </args>
<args> 50 xr_14 xr_40 </args>
<args> 50 xr_15 xr_21 </args>
<args> 50 xr_16 xr_17 </args>
<args> 20 xr_18 xr_21 </args>
<args> 20 xr_18 xr_47 </args>
<args> 20 xr_19 xr_40 </args>
<args> 50 xr_21 xr_32 </args>
<args> 50 xr_21 xr_23 </args>
<args> 50 xr_22 xr_30 </args>
<args> 30 xr_25 xr_33 </args>
<args> 30 xr_25 xr_47 </args>
<args> 30 xr_26 xr_28 </args>
<args> 50 xr_26 xr_41 </args>
<args> 20 xr_27 xr_38 </args>
<args> 30 xr_28 xr_33 </args>
<args> 50 xr_29 xr_39 </args>
<args> 40 xr_30 xr_49 </args>
<args> 50 xr_31 xr_36 </args>
<args> 40 xr_33 xr_34 </args>
<args> 20 xr_34 xr_46 </args>
<args> 20 xr_35 xr_40 </args>
<args> 40 xr_36 xr_45 </args>
<args> 40 xr_36 xr_49 </args>
<args> 40 xr_37 xr_45 </args>
<args> 30 xr_38 xr_43 </args>
<args> 30 xr_40 xr_48 </args>
<args> 50 xr_41 xr_46 </args>
<args> 30 xr_42 xr_44 </args>
</group>
<group note="If stations linked then they must have the same emitting and receiving Frequency">
<intension> eq(%0,%1) </intension>
<args> xe_0 xr_38 </args>
<args> xe_2 xr_35 </args>
<args> xe_2 xr_15 </args>
<args> xe_5 xr_10 </args>
<args> xe_5 xr_37 </args>
<args> xe_12 xr_46 </args>
<args> xe_17 xr_40 </args>
<args> xe_20 xr_24 </args>
<args> xe_24 xr_36 </args>
<args> xe_25 xr_27 </args>
<args> xe_32 xr_36 </args>
</group>
<group note="If stations linked then they must have the same receiving and emitting Frequency">
<intension> eq(%0,%1) </intension>
<args> xr_0 xe_38 </args>
<args> xr_2 xe_35 </args>
<args> xr_2 xe_15 </args>
<args> xr_5 xe_10 </args>
<args> xr_5 xe_37 </args>
<args> xr_12 xe_46 </args>
<args> xr_17 xe_40 </args>
<args> xr_20 xe_24 </args>
<args> xr_24 xe_36 </args>
<args> xr_25 xe_27 </args>
<args> xr_32 xe_36 </args>
</group>
<nValues note="Limit on number of frequencies per region">
<list> xe_13 xr_13 xe_22 xr_22 xe_27 xr_27 xe_38 xr_38 xe_42 xr_42 xe_43 xr_43 </list>
<condition> (le,11) </condition>
</nValues>
<nValues note="Limit on number of frequencies per region">
<list> xe_7 xr_7 xe_21 xr_21 xe_45 xr_45 </list>
<condition> (le,4) </condition>
</nValues>
<nValues note="Limit on number of frequencies per region">
<list> xe_0 xr_0 xe_3 xr_3 xe_9 xr_9 xe_18 xr_18 xe_20 xr_20 xe_24 xr_24 xe_30 xr_30 xe_36 xr_36 xe_47 xr_47 xe_49 xr_49 </list>
<condition> (le,19) </condition>
</nValues>
<nValues note="Limit on number of frequencies per region">
<list> xe_5 xr_5 xe_8 xr_8 xe_10 xr_10 xe_16 xr_16 xe_17 xr_17 xe_19 xr_19 xe_29 xr_29 xe_37 xr_37 xe_39 xr_39 xe_40 xr_40 </list>
<condition> (le,19) </condition>
</nValues>
<nValues note="Limit on number of frequencies per region">
<list> xe_1 xr_1 xe_6 xr_6 xe_23 xr_23 xe_31 xr_31 </list>
<condition> (le,8) </condition>
</nValues>
<nValues note="Limit on number of frequencies per region">
<list> xe_11 xr_11 xe_12 xr_12 xe_25 xr_25 xe_26 xr_26 xe_28 xr_28 xe_33 xr_33 xe_34 xr_34 xe_41 xr_41 xe_44 xr_44 xe_46 xr_46 </list>
<condition> (le,18) </condition>
</nValues>
<nValues note="Limit on number of frequencies per region">
<list> xe_2 xr_2 xe_4 xr_4 xe_14 xr_14 xe_15 xr_15 xe_32 xr_32 xe_35 xr_35 xe_48 xr_48 </list>
<condition> (le,14) </condition>
</nValues>
<nValues>
<list> xe_0 xr_0 xe_1 xr_1 xe_2 xr_2 xe_3 xr_3 xe_4 xr_4 xe_5 xr_5 xe_6 xr_6 xe_7 xr_7 xe_8 xr_8 xe_9 xr_9 xe_10 xr_10 xe_11 xr_11 xe_12 xr_12 xe_13 xr_13 xe_14 xr_14 xe_15 xr_15 xe_16 xr_16 xe_17 xr_17 xe_18 xr_18 xe_19 xr_19 xe_20 xr_20 xe_21 xr_21 xe_22 xr_22 xe_23 xr_23 xe_24 xr_24 xe_25 xr_25 xe_26 xr_26 xe_27 xr_27 xe_28 xr_28 xe_29 xr_29 xe_30 xr_30 xe_31 xr_31 xe_32 xr_32 xe_33 xr_33 xe_34 xr_34 xe_35 xr_35 xe_36 xr_36 xe_37 xr_37 xe_38 xr_38 xe_39 xr_39 xe_40 xr_40 xe_41 xr_41 xe_42 xr_42 xe_43 xr_43 xe_44 xr_44 xe_45 xr_45 xe_46 xr_46 xe_47 xr_47 xe_48 xr_48 xe_49 xr_49 </list>
<condition> (eq,nFrequencies) </condition>
</nValues>
</constraints>
<objectives>
<minimize> nFrequencies </minimize>
</objectives>
</instance>
